c Random generated cnf formula, satisfiable: true
p cnf 10 50
-4 3 1 0
1 -3 -8 0
1 9 5 0
5 -6 -2 0
-7 -3 8 0
3 -2 8 0
8 3 -7 0
5 6 1 0
-5 -7 8 0
3 8 6 0
2 -10 -1 0
-1 -5 7 0
5 -9 8 0
-7 5 8 0
9 7 -6 0
-5 3 7 0
3 7 1 0
2 -9 -7 0
-8 -1 -5 0
-2 -7 1 0
-7 3 6 0
-7 3 -4 0
-2 10 6 0
4 -3 10 0
3 -6 -1 0
-1 3 9 0
-10 -8 -4 0
-4 9 -7 0
-1 10 6 0
-5 4 -1 0
10 -7 5 0
4 10 6 0
9 8 -1 0
3 10 8 0
-10 5 -4 0
-10 7 9 0
1 7 6 0
7 -4 -3 0
-10 4 -1 0
5 -6 9 0
5 8 -4 0
-5 10 8 0
-1 7 -8 0
-10 -4 9 0
8 -1 6 0
9 -7 2 0
-8 4 10 0
7 -4 5 0
-6 3 -10 0
-7 5 1 0
